c Generated map
c Size: 13 * 13, weights in range: 1 to 10, walls: True, with ratio 0.1
c dim 2 of 3
c
p sp 169 255
c graph contains 169 nodes and 255 arcs
c
a 1 14 5
a 14 1 5
a 1 2 7
a 2 1 7
a 2 15 8
a 15 2 8
a 2 3 10
a 3 2 10
a 3 16 5
a 16 3 5
a 3 4 3
a 4 3 3
a 4 5 10
a 5 4 10
a 5 18 7
a 18 5 7
a 5 6 1
a 6 5 1
a 6 19 10
a 19 6 10
a 6 7 3
a 7 6 3
a 7 20 1
a 20 7 1
a 7 8 6
a 8 7 6
a 8 21 8
a 21 8 8
a 8 9 5
a 9 8 5
a 9 22 4
a 22 9 4
a 9 10 4
a 10 9 4
a 12 25 7
a 25 12 7
a 12 13 8
a 13 12 8
a 14 27 2
a 27 14 2
a 14 15 1
a 15 14 1
a 15 28 6
a 28 15 6
a 15 16 2
a 16 15 2
a 16 29 3
a 29 16 3
a 18 31 10
a 31 18 10
a 18 19 4
a 19 18 4
a 19 20 6
a 20 19 6
a 20 33 6
a 33 20 6
a 20 21 7
a 21 20 7
a 21 34 10
a 34 21 10
a 21 22 7
a 22 21 7
a 22 35 5
a 35 22 5
a 24 37 7
a 37 24 7
a 24 25 8
a 25 24 8
a 25 38 9
a 38 25 9
a 27 40 10
a 40 27 10
a 27 28 4
a 28 27 4
a 28 41 3
a 41 28 3
a 28 29 4
a 29 28 4
a 29 42 6
a 42 29 6
a 29 30 7
a 30 29 7
a 30 43 10
a 43 30 10
a 30 31 6
a 31 30 6
a 31 44 2
a 44 31 2
a 33 46 7
a 46 33 7
a 33 34 2
a 34 33 2
a 34 47 7
a 47 34 7
a 34 35 6
a 35 34 6
a 35 48 3
a 48 35 3
a 35 36 9
a 36 35 9
a 36 49 6
a 49 36 6
a 36 37 2
a 37 36 2
a 37 50 7
a 50 37 7
a 37 38 6
a 38 37 6
a 38 51 5
a 51 38 5
a 38 39 8
a 39 38 8
a 40 53 7
a 53 40 7
a 40 41 4
a 41 40 4
a 41 54 8
a 54 41 8
a 41 42 2
a 42 41 2
a 42 55 5
a 55 42 5
a 42 43 1
a 43 42 1
a 43 56 9
a 56 43 9
a 43 44 1
a 44 43 1
a 44 57 6
a 57 44 6
a 44 45 4
a 45 44 4
a 45 58 6
a 58 45 6
a 45 46 4
a 46 45 4
a 46 59 6
a 59 46 6
a 46 47 4
a 47 46 4
a 47 60 9
a 60 47 9
a 47 48 8
a 48 47 8
a 48 61 4
a 61 48 4
a 48 49 9
a 49 48 9
a 49 62 2
a 62 49 2
a 49 50 6
a 50 49 6
a 50 63 6
a 63 50 6
a 50 51 3
a 51 50 3
a 51 64 9
a 64 51 9
a 53 66 2
a 66 53 2
a 53 54 6
a 54 53 6
a 54 55 7
a 55 54 7
a 55 68 8
a 68 55 8
a 55 56 7
a 56 55 7
a 56 69 4
a 69 56 4
a 56 57 2
a 57 56 2
a 57 70 9
a 70 57 9
a 57 58 3
a 58 57 3
a 58 71 4
a 71 58 4
a 58 59 6
a 59 58 6
a 59 72 4
a 72 59 4
a 59 60 4
a 60 59 4
a 60 73 8
a 73 60 8
a 60 61 5
a 61 60 5
a 61 74 3
a 74 61 3
a 61 62 1
a 62 61 1
a 62 75 6
a 75 62 6
a 62 63 4
a 63 62 4
a 63 76 8
a 76 63 8
a 63 64 8
a 64 63 8
a 64 77 5
a 77 64 5
a 66 79 10
a 79 66 10
a 68 81 9
a 81 68 9
a 68 69 6
a 69 68 6
a 69 82 6
a 82 69 6
a 69 70 5
a 70 69 5
a 70 83 1
a 83 70 1
a 70 71 3
a 71 70 3
a 71 84 8
a 84 71 8
a 71 72 7
a 72 71 7
a 72 85 5
a 85 72 5
a 72 73 6
a 73 72 6
a 73 86 1
a 86 73 1
a 73 74 3
a 74 73 3
a 74 87 1
a 87 74 1
a 74 75 6
a 75 74 6
a 75 88 9
a 88 75 9
a 75 76 4
a 76 75 4
a 76 89 1
a 89 76 1
a 76 77 8
a 77 76 8
a 77 90 10
a 90 77 10
a 77 78 7
a 78 77 7
a 78 91 7
a 91 78 7
a 79 92 3
a 92 79 3
a 81 94 7
a 94 81 7
a 81 82 10
a 82 81 10
a 82 95 8
a 95 82 8
a 82 83 8
a 83 82 8
a 83 96 10
a 96 83 10
a 83 84 1
a 84 83 1
a 84 97 5
a 97 84 5
a 84 85 1
a 85 84 1
a 85 98 7
a 98 85 7
a 85 86 4
a 86 85 4
a 86 99 7
a 99 86 7
a 86 87 5
a 87 86 5
a 87 100 7
a 100 87 7
a 87 88 8
a 88 87 8
a 88 101 5
a 101 88 5
a 88 89 4
a 89 88 4
a 89 102 10
a 102 89 10
a 89 90 1
a 90 89 1
a 90 103 9
a 103 90 9
a 90 91 2
a 91 90 2
a 91 104 2
a 104 91 2
a 92 105 3
a 105 92 3
a 94 107 1
a 107 94 1
a 94 95 8
a 95 94 8
a 95 108 7
a 108 95 7
a 95 96 2
a 96 95 2
a 96 109 3
a 109 96 3
a 96 97 6
a 97 96 6
a 97 110 4
a 110 97 4
a 97 98 9
a 98 97 9
a 98 111 1
a 111 98 1
a 98 99 7
a 99 98 7
a 99 100 5
a 100 99 5
a 100 113 3
a 113 100 3
a 100 101 9
a 101 100 9
a 101 114 8
a 114 101 8
a 101 102 1
a 102 101 1
a 102 103 8
a 103 102 8
a 103 116 7
a 116 103 7
a 103 104 9
a 104 103 9
a 104 117 10
a 117 104 10
a 105 118 8
a 118 105 8
a 107 120 4
a 120 107 4
a 107 108 1
a 108 107 1
a 108 121 9
a 121 108 9
a 108 109 9
a 109 108 9
a 109 122 3
a 122 109 3
a 109 110 6
a 110 109 6
a 110 111 2
a 111 110 2
a 111 124 6
a 124 111 6
a 113 126 2
a 126 113 2
a 113 114 1
a 114 113 1
a 114 127 1
a 127 114 1
a 116 129 2
a 129 116 2
a 116 117 8
a 117 116 8
a 117 130 7
a 130 117 7
a 118 119 8
a 119 118 8
a 119 132 3
a 132 119 3
a 119 120 6
a 120 119 6
a 120 133 6
a 133 120 6
a 120 121 10
a 121 120 10
a 121 134 7
a 134 121 7
a 121 122 7
a 122 121 7
a 122 135 9
a 135 122 9
a 124 137 3
a 137 124 3
a 124 125 8
a 125 124 8
a 125 138 2
a 138 125 2
a 125 126 4
a 126 125 4
a 126 139 10
a 139 126 10
a 126 127 3
a 127 126 3
a 127 140 1
a 140 127 1
a 127 128 3
a 128 127 3
a 128 141 10
a 141 128 10
a 128 129 4
a 129 128 4
a 129 142 7
a 142 129 7
a 129 130 7
a 130 129 7
a 130 143 10
a 143 130 10
a 132 145 2
a 145 132 2
a 132 133 10
a 133 132 10
a 133 146 5
a 146 133 5
a 133 134 6
a 134 133 6
a 134 147 2
a 147 134 2
a 134 135 8
a 135 134 8
a 135 148 4
a 148 135 4
a 135 136 2
a 136 135 2
a 136 149 6
a 149 136 6
a 136 137 8
a 137 136 8
a 137 150 3
a 150 137 3
a 137 138 8
a 138 137 8
a 138 151 9
a 151 138 9
a 138 139 7
a 139 138 7
a 139 152 3
a 152 139 3
a 139 140 1
a 140 139 1
a 140 153 2
a 153 140 2
a 140 141 6
a 141 140 6
a 141 154 3
a 154 141 3
a 141 142 6
a 142 141 6
a 142 155 6
a 155 142 6
a 142 143 5
a 143 142 5
a 143 156 3
a 156 143 3
a 144 157 4
a 157 144 4
a 144 145 10
a 145 144 10
a 145 158 5
a 158 145 5
a 145 146 2
a 146 145 2
a 146 159 9
a 159 146 9
a 146 147 7
a 147 146 7
a 147 160 10
a 160 147 10
a 147 148 6
a 148 147 6
a 148 161 3
a 161 148 3
a 148 149 2
a 149 148 2
a 149 150 3
a 150 149 3
a 150 163 10
a 163 150 10
a 150 151 9
a 151 150 9
a 151 164 2
a 164 151 2
a 151 152 10
a 152 151 10
a 152 165 9
a 165 152 9
a 152 153 10
a 153 152 10
a 153 154 6
a 154 153 6
a 154 167 4
a 167 154 4
a 154 155 3
a 155 154 3
a 155 168 9
a 168 155 9
a 155 156 8
a 156 155 8
a 156 169 10
a 169 156 10
a 157 158 10
a 158 157 10
a 158 159 8
a 159 158 8
a 159 160 4
a 160 159 4
a 160 161 8
a 161 160 8
a 163 164 3
a 164 163 3
a 164 165 5
a 165 164 5
a 167 168 5
a 168 167 5
a 168 169 9
a 169 168 9
